p cnf 9 27
9 4 5 0
-7 -4 6 -2 0
1 -2 7 0
-7 0
1 6 -2 0
8 2 -4 -1 0
-9 0
-5 0
8 -1 0
-7 -3 6 0
9 2 -1 1 0
9 -6 -4 0
1 2 0
-7 0
2 -3 0
1 -4 0
-8 9 2 5 0
3 0
-7 -9 -3 7 0
8 3 -4 -1 0
4 5 0
9 -5 7 0
8 2 -5 4 0
3 1 -5 -7 0
-7 3 6 7 0
-2 7 0
-4 -3 0
